unsat
(forall ((A (_ BitVec 20))
         (B (_ BitVec 20))
         (C (_ BitVec 20))
         (D (_ BitVec 20))
         (E (_ BitVec 20))
         (F (_ BitVec 20))
         (G (_ BitVec 20))
         (H (_ BitVec 20))
         (I (_ BitVec 20))
         (J (_ BitVec 20))
         (K (_ BitVec 20))
         (L (_ BitVec 20))
         (M (_ BitVec 20))
         (N (_ BitVec 20))
         (O (_ BitVec 20))
         (P (_ BitVec 20))
         (Q (_ BitVec 20))
         (R (_ BitVec 20))
         (S (_ BitVec 20))
         (T (_ BitVec 20))
         (U (_ BitVec 18))
         (V (_ BitVec 20))
         (W (_ BitVec 18))
         (X (_ BitVec 20))
         (Y (_ BitVec 20))
         (Z (_ BitVec 1))
         (A1 (_ BitVec 1))
         (B1 (_ BitVec 20))
         (C1 (_ BitVec 20))
         (D1 (_ BitVec 20))
         (E1 (_ BitVec 1))
         (F1 (_ BitVec 20))
         (G1 (_ BitVec 20))
         (H1 (_ BitVec 20))
         (I1 (_ BitVec 20))
         (J1 (_ BitVec 38))
         (K1 (_ BitVec 20))
         (L1 (_ BitVec 20))
         (M1 (_ BitVec 1))
         (N1 (_ BitVec 38))
         (O1 (_ BitVec 1))
         (P1 (_ BitVec 20))
         (Q1 (_ BitVec 20))
         (R1 (_ BitVec 20))
         (S1 (_ BitVec 20))
         (T1 (_ BitVec 14))
         (U1 (_ BitVec 20))
         (V1 (_ BitVec 20))
         (W1 (_ BitVec 1))
         (X1 (_ BitVec 22))
         (Y1 (_ BitVec 20))
         (Z1 (_ BitVec 1))
         (A2 (_ BitVec 20))
         (B2 (_ BitVec 20))
         (C2 (_ BitVec 20))
         (D2 (_ BitVec 1))
         (E2 (_ BitVec 1))
         (F2 (_ BitVec 1))
         (G2 (_ BitVec 38))
         (H2 (_ BitVec 14))
         (I2 (_ BitVec 22))
         (J2 (_ BitVec 22))
         (K2 (_ BitVec 20))
         (L2 (_ BitVec 16))
         (M2 (_ BitVec 38))
         (N2 (_ BitVec 30))
         (O2 (_ BitVec 30))
         (P2 (_ BitVec 20))
         (Q2 (_ BitVec 20))
         (R2 (_ BitVec 20))
         (S2 (_ BitVec 20))
         (T2 (_ BitVec 20))
         (U2 (_ BitVec 20))
         (V2 (_ BitVec 20))
         (W2 (_ BitVec 16))
         (X2 (_ BitVec 20))
         (Y2 (_ BitVec 18))
         (Z2 (_ BitVec 30))
         (A3 (_ BitVec 1))
         (B3 (_ BitVec 38))
         (C3 (_ BitVec 30)))
  (! (let ((a!1 (= ((_ extract 33 2)
                     (bvadd ((_ extract 37 4) N1) (concat #x000 I2)))
                   #x00000000))
           (a!2 (or (not (= ((_ extract 0 0) U1) #b1))
                    (= ((_ extract 0 0) X) #b1)))
           (a!3 ((_ extract 22 2)
                  (bvadd (concat #b0 J2) (concat #b000 ((_ extract 21 2) X1))))))
     (let ((a!4 (= ((_ extract 33 2)
                     (bvadd (concat #x000 I2) (concat #b0000000000000 a!3)))
                   #x00000000)))
     (let ((a!5 (and (= ((_ extract 37 6) N1) #x00000000)
                     (= ((_ extract 37 6) J1) #x00000000)
                     (or ((_ bit2bool 1) Y2)
                         ((_ bit2bool 2) W)
                         ((_ bit2bool 1) U)
                         ((_ bit2bool 0) W)
                         (not ((_ bit2bool 2) U))
                         (not ((_ bit2bool 1) W)))
                     (not ((_ bit2bool 1) H2))
                     (not ((_ bit2bool 0) H2))
                     (or ((_ bit2bool 0) L)
                         ((_ bit2bool 1) L)
                         ((_ bit2bool 2) L)
                         (not ((_ bit2bool 2) I1))
                         (= ((_ extract 2 2) R1) #b1))
                     (not (= ((_ extract 17 17) U) #b1))
                     (not (= ((_ extract 17 17) Y2) #b1))
                     (or ((_ bit2bool 1) Y2)
                         ((_ bit2bool 0) Y2)
                         ((_ bit2bool 1) W)
                         ((_ bit2bool 0) W)
                         (not ((_ bit2bool 1) U)))
                     (or ((_ bit2bool 2) Y2)
                         ((_ bit2bool 0) Y2)
                         ((_ bit2bool 1) W)
                         ((_ bit2bool 2) W)
                         (not ((_ bit2bool 2) U)))
                     (not (= ((_ extract 17 17) W) #b1))
                     (or ((_ bit2bool 0) I1)
                         (= ((_ extract 0 0) R1) #b1)
                         (not ((_ bit2bool 0) L)))
                     a!1
                     a!2
                     a!4
                     (or (not ((_ bit2bool 0) F2)) (not (= E1 #b0))))))
       (= (INV!slice!1 A
                       B
                       C
                       D
                       E
                       F
                       G
                       H
                       I
                       J
                       K
                       L
                       M
                       N
                       O
                       P
                       Q
                       R
                       S
                       T
                       U
                       V
                       W
                       X
                       Y
                       Z
                       A1
                       B1
                       C1
                       D1
                       E1
                       F1
                       G1
                       H1
                       I1
                       J1
                       K1
                       L1
                       M1
                       N1
                       O1
                       P1
                       Q1
                       R1
                       S1
                       T1
                       U1
                       V1
                       W1
                       X1
                       Y1
                       Z1
                       A2
                       B2
                       C2
                       D2
                       E2
                       F2
                       G2
                       H2
                       I2
                       J2
                       K2
                       L2
                       M2
                       N2
                       O2
                       P2
                       Q2
                       R2
                       S2
                       T2
                       U2
                       V2
                       W2
                       X2
                       Y2
                       Z2
                       A3
                       B3
                       C3)
          a!5))))
     :weight 0))
